webassembly/ejemplos_dzn/folder10_json_67.dzn
TERM = { '.', 's(5)', 's(2)', 's(4)', 'in_1', 'local_0', 'local_1', 'in_2', 'in_4', 'in_3', 's(6)', 's(1)', 's(0)', 's(3)', 'in_0'};
null = '.';
s = 10;
n = 10;
ndeps = 5;
max_registers_sz = 4;
NR = 1;
registers = [|'local_1', 'local_0'|];
dependencies = [|'i32.load16_s_0', 'call[function_index(0)]_6', |'call[function_index(0)]_6', 'call[function_index(1)]_9', |'i32.load16_u_2', 'call[function_index(0)]_6', |'i32.load16_s_3', 'call[function_index(0)]_6', |'i32.load16_s_4', 'call[function_index(0)]_6'|];
GET_ENUM = { GET1, GET2, GET3, GET4, GET5};
SET_ENUM = { SET1, SET2, SET3, SET4, SET5};
TEE_ENUM = { TEE1, TEE2, TEE3, TEE4, TEE5};
N = 8;
OP = { 'i32.add_0', 'call[function_index(0)]_6', 'call[function_index(1)]_9', 'i32.load16_s_0', 'i32.load16_u_2', 'i32.load16_s_3', 'i32.load16_s_4', 'local.get_0' };
in_ops = [2, 2, 3, 1, 1, 1, 1, 0 ];
out_ops = [1, 0, 2, 1, 1, 1, 1, 1 ];
in1 = ['s(3)', 's(4)', 'local_0', 'in_0', 's(0)', 's(1)', 's(2)', '.' ];
in2 = ['in_1', 'in_2', 'in_3', '.', '.', '.', '.', '.' ];
in3 = ['.', '.', 'in_4', '.', '.', '.', '.', '.' ];
out1 = ['s(4)', '.', 's(6)', 's(0)', 's(1)', 's(2)', 's(3)', 'local_0' ];
out2 = ['.', '.', 's(5)', '.', '.', '.', '.', '.' ];
out3 = ['.', '.', '.', '.', '.', '.', '.', '.' ];
comm = [true, false, false, false, false, false, false, false ];
gas = [1, 1, 1, 1, 1, 1, 1, 1 ];
sz = [1, 1, 1, 1, 1, 1, 1, 1 ];
stor = [false, true, true, false, false, false, false, false ];
lb = [ 1, 1, 1, 1, 1, 1, 1, 1 ];
ub = [ 10, 10, 10, 10, 10, 10, 10, 10 ];
startstack = [ 'in_0', 'in_1', 'in_2', 'in_3', 'in_4', null, null, null, null, null ];
endstack = [ 's(6)', 's(5)', null, null, null, null, null, null, null, null ];
